44
29
0 30 31 32 36 37 38 42 43
1 29 30 32 36 37 38 43
2 30 31 32 36 37 39 42
3 30 32 36 37 39 40 42
4 30 32 34 36 37 38 39 40 42
5 30 32 35 36 37 38 42 43
6 30 31 32 35 36 37 38 40 42
7 30 32 35 37 38 42 43
8 30 32 36 37 38
9 32 38 43
10 30 36 37 38 43
11 29 30 32 33 37 43
12 30 36 37 42
13 31 32 36 37 38 40
14 29 32 35 36 37 38
15 29 31 38 39
16 32 36 38 42
17 30 31 32 35 36 42
18 42
19 30 31 32 33 35 36
20 32 35 38
21 29 35 43
22 37 41
23 29 40
24 42
25 39 43
26 33 42
27
28
